[RandomWarp]	WorldID	DungeonID	RandomWarpIdx	WarpOrder	WarpID	NpcID
0	138	4352	0	0	664	3
1	138	4352	0	1	668	11
2	138	4352	0	2	672	19
3	138	4352	1	0	664	3
4	138	4352	1	1	668	11
5	138	4352	1	2	673	20
6	138	4352	2	0	664	3
7	138	4352	2	1	669	12
8	138	4352	2	2	672	19
9	138	4352	3	0	664	3
10	138	4352	3	1	669	12
11	138	4352	3	2	673	20
12	138	4352	4	0	664	3
13	138	4352	4	1	670	13
14	138	4352	4	2	672	19
15	138	4352	5	0	664	3
16	138	4352	5	1	670	13
17	138	4352	5	2	673	20
18	138	4352	6	0	664	3
19	138	4352	6	1	671	14
20	138	4352	6	2	672	19
21	138	4352	7	0	664	3
22	138	4352	7	1	671	14
23	138	4352	7	2	673	20
24	138	4352	8	0	665	4
25	138	4352	8	1	668	11
26	138	4352	8	2	672	19
27	138	4352	9	0	665	4
28	138	4352	9	1	668	11
29	138	4352	9	2	673	20
30	138	4352	10	0	665	4
31	138	4352	10	1	669	12
32	138	4352	10	2	672	19
33	138	4352	11	0	665	4
34	138	4352	11	1	669	12
35	138	4352	11	2	673	20
36	138	4352	12	0	665	4
37	138	4352	12	1	670	13
38	138	4352	12	2	672	19
39	138	4352	13	0	665	4
40	138	4352	13	1	670	13
41	138	4352	13	2	673	20
42	138	4352	14	0	665	4
43	138	4352	14	1	671	14
44	138	4352	14	2	672	19
45	138	4352	15	0	665	4
46	138	4352	15	1	671	14
47	138	4352	15	2	673	20
48	138	4352	16	0	666	5
49	138	4352	16	1	668	11
50	138	4352	16	2	672	19
51	138	4352	17	0	666	5
52	138	4352	17	1	668	11
53	138	4352	17	2	673	20
54	138	4352	18	0	666	5
55	138	4352	18	1	669	12
56	138	4352	18	2	672	19
57	138	4352	19	0	666	5
58	138	4352	19	1	669	12
59	138	4352	19	2	673	20
60	138	4352	20	0	666	5
61	138	4352	20	1	670	13
62	138	4352	20	2	672	19
63	138	4352	21	0	666	5
64	138	4352	21	1	670	13
65	138	4352	21	2	673	20
66	138	4352	22	0	666	5
67	138	4352	22	1	671	14
68	138	4352	22	2	672	19
69	138	4352	23	0	666	5
70	138	4352	23	1	671	14
71	138	4352	23	2	673	20
72	138	4352	24	0	667	6
73	138	4352	24	1	668	11
74	138	4352	24	2	672	19
75	138	4352	25	0	667	6
76	138	4352	25	1	668	11
77	138	4352	25	2	673	20
78	138	4352	26	0	667	6
79	138	4352	26	1	669	12
80	138	4352	26	2	672	19
81	138	4352	27	0	667	6
82	138	4352	27	1	669	12
83	138	4352	27	2	673	20
84	138	4352	28	0	667	6
85	138	4352	28	1	670	13
86	138	4352	28	2	672	19
87	138	4352	29	0	667	6
88	138	4352	29	1	670	13
89	138	4352	29	2	673	20
90	138	4352	30	0	667	6
91	138	4352	30	1	671	14
92	138	4352	30	2	672	19
93	138	4352	31	0	667	6
94	138	4352	31	1	671	14
95	138	4352	31	2	673	20

[WarpCheck]	WorldID	DungeonID	WarpOrder	WarpID
0	138	4352	3	674	

